p cnf 7230 15
12 -2013 0
1824 -2013 0
-17 -1862 2014 0
-12 -1824 2012 0
17 -2017 0
2011 -2013 0
-2016 2017 0
-2015 2016 0
-2014 2015 0
-2012 2013 0
1862 -2017 0
2010 -2011 0
1860 -2019 0
22 -2019 0
-2010 2011 0
